Maximize

345 dSta_0 + 31 d0_1.0 + 31 d0_4.0 + 35 d1_2.0 + 589 d1_2.1 + 31 d2_3.0 + 35 d2_2.0 + 589 d2_2.1 + 186 d3_6.0 + 19 d4_5.0 + 341 d4_5.1 + 186 d5_6.0 + 19 d5_5.0 + 341 d5_5.1 + 31 d6_7.0 + 31 d6_10.0 + 35 d7_8.0 + 589 d7_8.1 + 31 d8_9.0 + 35 d8_8.0 + 589 d8_8.1 + 155 d9_12.0 + 19 d10_11.0 + 341 d10_11.1 + 155 d11_12.0 + 19 d11_11.0 + 341 d11_11.1 + 93 d12_21.0 + 62 d13_24.0 + 31 d14_27.0 + 124 d15_32.0 + 372 d16_37.0 + 155 d17_41.0 + 62 d18_44.0 + 496 d19_45.0 + 17 d21_22.0 + 372 d21_22.1 + 31 d22_23.0 + 17 d22_22.0 + 372 d22_22.1 + 186 d23_13.0 + 21 d24_25.0 + 403 d24_25.1 + 93 d25_26.0 + 21 d25_25.0 + 403 d25_25.1 + 155 d26_14.0 + 3 d27_28.0 + 93 d27_28.1 + 17 d28_29.0 + 372 d28_29.1 + 7 d29_30.0 + 186 d29_30.1 + 17 d29_29.0 + 372 d29_29.1 + 31 d30_31.0 + 3 d30_28.0 + 93 d30_28.1 + 124 d31_15.0 + 155 d32_33.0 + 35 d33_34.0 + 214 d33_34.1 + 806 d33_34.2 + 249 d34_35.0 + 279 d34_35.1 + 35 d34_34.0 + 214 d34_34.1 + 806 d34_34.2 + 62 d35_36.0 + 155 d35_33.0 + 155 d36_16.0 + 93 d37_38.0 + 155 d37_40.0 + 24 d38_39.0 + 465 d38_39.1 + 155 d39_40.0 + 24 d39_39.0 + 465 d39_39.1 + 186 d40_17.0 + 40 d41_42.0 + 899 d41_42.1 + 62 d42_43.0 + 40 d42_42.0 + 899 d42_42.1 + 403 d43_18.0 + 93 d44_19.0 + 527 d45_46.0 + 31 d46_47.0 + 69 d47_48.0 + 930 d47_48.1 + 4619 d48_49.0 + 69 d48_48.0 + 930 d48_48.1 + 310 d49_50.0 + 31 d49_47.0 + 341 d50_51.0 + 527 d50_46.0 + 217 d51_20.0


Subject to

cm - d0_1.0 - 19 d1_2.1 - 19 d2_2.1 - d2_3.0 - d0_4.0 - 11 d4_5.1 - 11 d5_5.1 - 6 d3_6.0 - 6 d5_6.0 - d6_7.0 - 19 d7_8.1 - 19 d8_8.1 - d8_9.0 - d6_10.0 - 11 d10_11.1 - 11 d11_11.1 - 5 d9_12.0 - 5 d11_12.0 - 6 d23_13.0 - 5 d26_14.0 - 4 d31_15.0 - 5 d36_16.0 - 6 d40_17.0 - 13 d43_18.0 - 3 d44_19.0 - 7 d51_20.0 - 3 d12_21.0 - 12 d21_22.1 - 12 d22_22.1 - d22_23.0 - 2 d13_24.0 - 13 d24_25.1 - 13 d25_25.1 - 3 d25_26.0 - d14_27.0 - 3 d27_28.1 - 3 d30_28.1 - 12 d28_29.1 - 12 d29_29.1 - 6 d29_30.1 - d30_31.0 - 4 d15_32.0 - 5 d32_33.0 - 5 d35_33.0 - 6 d33_34.1 - 6 d34_34.1 - 26 d33_34.2 - 26 d34_34.2 - 8 d34_35.0 - 9 d34_35.1 - 2 d35_36.0 - 12 d16_37.0 - 3 d37_38.0 - 15 d38_39.1 - 15 d39_39.1 - 5 d37_40.0 - 5 d39_40.0 - 5 d17_41.0 - 29 d41_42.1 - 29 d42_42.1 - 2 d42_43.0 - 2 d18_44.0 - 16 d19_45.0 - 17 d45_46.0 - 17 d50_46.0 - d46_47.0 - d49_47.0 - d47_48.0 - d48_48.0 - 30 d47_48.1 - 30 d48_48.1 - 149 d48_49.0 - 10 d49_50.0 - 11 d50_51.0 = 11

\ === tcfg constraints ===
dSta_0 = 1
b0 - d0_1 - d0_4 = 0
b0 - dSta_0 = 0
b1 - d1_2 = 0
b1 - d0_1 = 0
b2 - d2_3 - d2_2 = 0
b2 - d1_2 - d2_2 = 0
b3 - d3_6 = 0
b3 - d2_3 = 0
b4 - d4_5 = 0
b4 - d0_4 = 0
b5 - d5_6 - d5_5 = 0
b5 - d4_5 - d5_5 = 0
b6 - d6_7 - d6_10 = 0
b6 - d3_6 - d5_6 = 0
b7 - d7_8 = 0
b7 - d6_7 = 0
b8 - d8_9 - d8_8 = 0
b8 - d7_8 - d8_8 = 0
b9 - d9_12 = 0
b9 - d8_9 = 0
b10 - d10_11 = 0
b10 - d6_10 = 0
b11 - d11_12 - d11_11 = 0
b11 - d10_11 - d11_11 = 0
b12 - d12_21 = 0
b12 - d9_12 - d11_12 = 0
b13 - d13_24 = 0
b13 - d23_13 = 0
b14 - d14_27 = 0
b14 - d26_14 = 0
b15 - d15_32 = 0
b15 - d31_15 = 0
b16 - d16_37 = 0
b16 - d36_16 = 0
b17 - d17_41 = 0
b17 - d40_17 = 0
b18 - d18_44 = 0
b18 - d43_18 = 0
b19 - d19_45 = 0
b19 - d44_19 = 0
b20 - d51_20 = 0
b21 - d21_22 = 0
b21 - d12_21 = 0
b22 - d22_23 - d22_22 = 0
b22 - d21_22 - d22_22 = 0
b23 - d23_13 = 0
b23 - d22_23 = 0
b24 - d24_25 = 0
b24 - d13_24 = 0
b25 - d25_26 - d25_25 = 0
b25 - d24_25 - d25_25 = 0
b26 - d26_14 = 0
b26 - d25_26 = 0
b27 - d27_28 = 0
b27 - d14_27 = 0
b28 - d28_29 = 0
b28 - d27_28 - d30_28 = 0
b29 - d29_30 - d29_29 = 0
b29 - d28_29 - d29_29 = 0
b30 - d30_31 - d30_28 = 0
b30 - d29_30 = 0
b31 - d31_15 = 0
b31 - d30_31 = 0
b32 - d32_33 = 0
b32 - d15_32 = 0
b33 - d33_34 = 0
b33 - d32_33 - d35_33 = 0
b34 - d34_35 - d34_34 = 0
b34 - d33_34 - d34_34 = 0
b35 - d35_36 - d35_33 = 0
b35 - d34_35 = 0
b36 - d36_16 = 0
b36 - d35_36 = 0
b37 - d37_38 - d37_40 = 0
b37 - d16_37 = 0
b38 - d38_39 = 0
b38 - d37_38 = 0
b39 - d39_40 - d39_39 = 0
b39 - d38_39 - d39_39 = 0
b40 - d40_17 = 0
b40 - d37_40 - d39_40 = 0
b41 - d41_42 = 0
b41 - d17_41 = 0
b42 - d42_43 - d42_42 = 0
b42 - d41_42 - d42_42 = 0
b43 - d43_18 = 0
b43 - d42_43 = 0
b44 - d44_19 = 0
b44 - d18_44 = 0
b45 - d45_46 = 0
b45 - d19_45 = 0
b46 - d46_47 = 0
b46 - d45_46 - d50_46 = 0
b47 - d47_48 = 0
b47 - d46_47 - d49_47 = 0
b48 - d48_49 - d48_48 = 0
b48 - d47_48 - d48_48 = 0
b49 - d49_50 - d49_47 = 0
b49 - d48_49 = 0
b50 - d50_51 - d50_46 = 0
b50 - d49_50 = 0
b51 - d51_20 = 0
b51 - d50_51 = 0


\ === cache_cons ===
b0.0 <= 1
b1 - b1.0 = 0
b2 - b2.0 - b2.1 = 0
b3 - b3.0 = 0
b4 - b4.0 = 0
b5 - b5.0 - b5.1 = 0
b6 - b6.0 = 0
b7 - b7.0 = 0
b8 - b8.0 - b8.1 = 0
b9 - b9.0 = 0
b10 - b10.0 = 0
b11 - b11.0 - b11.1 = 0
b12 - b12.0 = 0
b13 - b13.0 = 0
b14 - b14.0 = 0
b15 - b15.0 = 0
b16 - b16.0 = 0
b17 - b17.0 = 0
b18 - b18.0 = 0
b19 - b19.0 = 0
b20 - b20.0 = 0
b21 - b21.0 = 0
b22 - b22.0 - b22.1 = 0
b23 - b23.0 = 0
b24 - b24.0 = 0
b25 - b25.0 - b25.1 = 0
b26 - b26.0 = 0
b27 - b27.0 = 0
b28 - b28.0 - b28.1 = 0
b29 - b29.0 - b29.1 = 0
b30 - b30.0 - b30.1 = 0
b31 - b31.0 = 0
b32 - b32.0 = 0
b33 - b33.0 = 0
b34 - b34.0 - b34.1 - b34.2 = 0
b35 - b35.0 - b35.1 = 0
b36 - b36.0 = 0
b37 - b37.0 = 0
b38 - b38.0 = 0
b39 - b39.0 - b39.1 = 0
b40 - b40.0 = 0
b41 - b41.0 = 0
b42 - b42.0 - b42.1 = 0
b43 - b43.0 = 0
b44 - b44.0 = 0
b45 - b45.0 = 0
b46 - b46.0 = 0
b47 - b47.0 = 0
b48 - b48.0 - b48.1 = 0
b49 - b49.0 = 0
b50 - b50.0 = 0
b51 - b51.0 = 0

b0.0 <= 1
b1.0 - d0_1.0 = 0
b2.0 - d1_2.0 - d2_2.0 = 0
b2.1 - d1_2.1 - d2_2.1 = 0
b3.0 - d2_3.0 = 0
b4.0 - d0_4.0 = 0
b5.0 - d4_5.0 - d5_5.0 = 0
b5.1 - d4_5.1 - d5_5.1 = 0
b6.0 - d3_6.0 - d5_6.0 = 0
b7.0 - d6_7.0 = 0
b8.0 - d7_8.0 - d8_8.0 = 0
b8.1 - d7_8.1 - d8_8.1 = 0
b9.0 - d8_9.0 = 0
b10.0 - d6_10.0 = 0
b11.0 - d10_11.0 - d11_11.0 = 0
b11.1 - d10_11.1 - d11_11.1 = 0
b12.0 - d9_12.0 - d11_12.0 = 0
b13.0 - d23_13.0 = 0
b14.0 - d26_14.0 = 0
b15.0 - d31_15.0 = 0
b16.0 - d36_16.0 = 0
b17.0 - d40_17.0 = 0
b18.0 - d43_18.0 = 0
b19.0 - d44_19.0 = 0
b20.0 - d51_20.0 = 0
b21.0 - d12_21.0 = 0
b22.0 - d21_22.0 - d22_22.0 = 0
b22.1 - d21_22.1 - d22_22.1 = 0
b23.0 - d22_23.0 = 0
b24.0 - d13_24.0 = 0
b25.0 - d24_25.0 - d25_25.0 = 0
b25.1 - d24_25.1 - d25_25.1 = 0
b26.0 - d25_26.0 = 0
b27.0 - d14_27.0 = 0
b28.0 - d27_28.0 - d30_28.0 = 0
b28.1 - d27_28.1 - d30_28.1 = 0
b29.0 - d28_29.0 - d29_29.0 = 0
b29.1 - d28_29.1 - d29_29.1 = 0
b30.0 - d29_30.0 = 0
b30.1 - d29_30.1 = 0
b31.0 - d30_31.0 = 0
b32.0 - d15_32.0 = 0
b33.0 - d32_33.0 - d35_33.0 = 0
b34.0 - d33_34.0 - d34_34.0 = 0
b34.1 - d33_34.1 - d34_34.1 = 0
b34.2 - d33_34.2 - d34_34.2 = 0
b35.0 - d34_35.0 = 0
b35.1 - d34_35.1 = 0
b36.0 - d35_36.0 = 0
b37.0 - d16_37.0 = 0
b38.0 - d37_38.0 = 0
b39.0 - d38_39.0 - d39_39.0 = 0
b39.1 - d38_39.1 - d39_39.1 = 0
b40.0 - d37_40.0 - d39_40.0 = 0
b41.0 - d17_41.0 = 0
b42.0 - d41_42.0 - d42_42.0 = 0
b42.1 - d41_42.1 - d42_42.1 = 0
b43.0 - d42_43.0 = 0
b44.0 - d18_44.0 = 0
b45.0 - d19_45.0 = 0
b46.0 - d45_46.0 - d50_46.0 = 0
b47.0 - d46_47.0 - d49_47.0 = 0
b48.0 - d47_48.0 - d48_48.0 = 0
b48.1 - d47_48.1 - d48_48.1 = 0
b49.0 - d48_49.0 = 0
b50.0 - d49_50.0 = 0
b51.0 - d50_51.0 = 0

b0.0 - b0 = 0
b1.0 - b1 = 0
b2.1 - b0 <= 0
b3.0 - b3 = 0
b4.0 - b4 = 0
b5.1 - b0 <= 0
b6.0 - b6 = 0
b7.0 - b7 = 0
b8.1 - b0 <= 0
b9.0 - b9 = 0
b10.0 - b10 = 0
b11.1 - b0 <= 0
b12.0 - b12 = 0
b13.0 - b13 = 0
b14.0 - b14 = 0
b15.0 - b15 = 0
b16.0 - b16 = 0
b17.0 - b17 = 0
b18.0 - b18 = 0
b19.0 - b19 = 0
b20.0 - b20 = 0
b21.0 - b21 = 0
b22.1 - b0 <= 0
b23.0 - b23 = 0
b24.0 - b24 = 0
b25.1 - b0 <= 0
b26.0 - b26 = 0
b27.0 - b27 = 0
b28.1 - b0 <= 0
b29.1 - b0 <= 0
b30.1 - b0 <= 0
b31.0 - b31 = 0
b32.0 - b32 = 0
b33.0 - b33 = 0
b34.2 - b0 <= 0
b34.1 - d33_34 + b34.2 <= 0
b35.1 - b0 <= 0
b36.0 - b36 = 0
b37.0 - b37 = 0
b38.0 - b38 = 0
b39.1 - b0 <= 0
b40.0 - b40 = 0
b41.0 - b41 = 0
b42.1 - b0 <= 0
b43.0 - b43 = 0
b44.0 - b44 = 0
b45.0 - b45 = 0
b46.0 - b46 = 0
b47.0 - b47 = 0
b48.1 - b47 <= 0
b49.0 - b49 = 0
b50.0 - b50 = 0
b51.0 - b51 = 0

d2_2.1 = 0
d5_5.1 = 0
d8_8.1 = 0
d11_11.1 = 0
d22_22.1 = 0
d25_25.1 = 0
d29_29.1 = 0
d30_28.1 = 0
d34_34.1 = 0
d34_34.2 = 0
d39_39.1 = 0
d42_42.1 = 0
d48_48.1 = 0

\ === tcfg_estunit_cons ===
d0_1 - d0_1.0 = 0
d0_4 - d0_4.0 = 0
d1_2 - d1_2.0 - d1_2.1 = 0
d2_3 - d2_3.0 = 0
d2_2 - d2_2.0 - d2_2.1 = 0
d3_6 - d3_6.0 = 0
d4_5 - d4_5.0 - d4_5.1 = 0
d5_6 - d5_6.0 = 0
d5_5 - d5_5.0 - d5_5.1 = 0
d6_7 - d6_7.0 = 0
d6_10 - d6_10.0 = 0
d7_8 - d7_8.0 - d7_8.1 = 0
d8_9 - d8_9.0 = 0
d8_8 - d8_8.0 - d8_8.1 = 0
d9_12 - d9_12.0 = 0
d10_11 - d10_11.0 - d10_11.1 = 0
d11_12 - d11_12.0 = 0
d11_11 - d11_11.0 - d11_11.1 = 0
d12_21 - d12_21.0 = 0
d13_24 - d13_24.0 = 0
d14_27 - d14_27.0 = 0
d15_32 - d15_32.0 = 0
d16_37 - d16_37.0 = 0
d17_41 - d17_41.0 = 0
d18_44 - d18_44.0 = 0
d19_45 - d19_45.0 = 0
d21_22 - d21_22.0 - d21_22.1 = 0
d22_23 - d22_23.0 = 0
d22_22 - d22_22.0 - d22_22.1 = 0
d23_13 - d23_13.0 = 0
d24_25 - d24_25.0 - d24_25.1 = 0
d25_26 - d25_26.0 = 0
d25_25 - d25_25.0 - d25_25.1 = 0
d26_14 - d26_14.0 = 0
d27_28 - d27_28.0 - d27_28.1 = 0
d28_29 - d28_29.0 - d28_29.1 = 0
d29_30 - d29_30.0 - d29_30.1 = 0
d29_29 - d29_29.0 - d29_29.1 = 0
d30_31 - d30_31.0 = 0
d30_28 - d30_28.0 - d30_28.1 = 0
d31_15 - d31_15.0 = 0
d32_33 - d32_33.0 = 0
d33_34 - d33_34.0 - d33_34.1 - d33_34.2 = 0
d34_35 - d34_35.0 - d34_35.1 = 0
d34_34 - d34_34.0 - d34_34.1 - d34_34.2 = 0
d35_36 - d35_36.0 = 0
d35_33 - d35_33.0 = 0
d36_16 - d36_16.0 = 0
d37_38 - d37_38.0 = 0
d37_40 - d37_40.0 = 0
d38_39 - d38_39.0 - d38_39.1 = 0
d39_40 - d39_40.0 = 0
d39_39 - d39_39.0 - d39_39.1 = 0
d40_17 - d40_17.0 = 0
d41_42 - d41_42.0 - d41_42.1 = 0
d42_43 - d42_43.0 = 0
d42_42 - d42_42.0 - d42_42.1 = 0
d43_18 - d43_18.0 = 0
d44_19 - d44_19.0 = 0
d45_46 - d45_46.0 = 0
d46_47 - d46_47.0 = 0
d47_48 - d47_48.0 - d47_48.1 = 0
d48_49 - d48_49.0 = 0
d48_48 - d48_48.0 - d48_48.1 = 0
d49_50 - d49_50.0 = 0
d49_47 - d49_47.0 = 0
d50_51 - d50_51.0 = 0
d50_46 - d50_46.0 = 0
d51_20 - d51_20.0 = 0

\ === infeasible path constraints ===

b21 = 1
b22 = 150
b23 = 1
b24 = 1
b25 = 150
b26 = 1
b27 = 1
b28 = 50
b29 = 2500
b30 = 50
b31 = 1
b32 = 1
b33 = 50
b34 = 800
b35 = 50
b36 = 1
b37 = 1
b38 = 1
b39 = 99
b40 = 1
b41 = 1
b42 = 50
b43 = 1
b44 = 1
b45 = 1
b46 = 2
b47 = 16
b48 = 64
b49 = 16
b50 = 2
b51 = 1
b0 = 1
b1 = 0
b2 = 0
b3 = 0
b4 = 1
b5 = 25
b6 = 1
b7 = 0
b8 = 0
b9 = 0
b10 = 1
b11 = 25
b12 = 1
b13 = 1
b14 = 1
b15 = 1
b16 = 1
b17 = 1
b18 = 1
b19 = 1
b20 = 1

Generals

cm
Sta
b0
d0_1
d0_4
b1
d1_2
b2
d2_3
d2_2
b3
d3_6
b4
d4_5
b5
d5_6
d5_5
b6
d6_7
d6_10
b7
d7_8
b8
d8_9
d8_8
b9
d9_12
b10
d10_11
b11
d11_12
d11_11
b12
d12_21
b13
d13_24
b14
d14_27
b15
d15_32
b16
d16_37
b17
d17_41
b18
d18_44
b19
d19_45
b20
b21
d21_22
b22
d22_23
d22_22
b23
d23_13
b24
d24_25
b25
d25_26
d25_25
b26
d26_14
b27
d27_28
b28
d28_29
b29
d29_30
d29_29
b30
d30_31
d30_28
b31
d31_15
b32
d32_33
b33
d33_34
b34
d34_35
d34_34
b35
d35_36
d35_33
b36
d36_16
b37
d37_38
d37_40
b38
d38_39
b39
d39_40
d39_39
b40
d40_17
b41
d41_42
b42
d42_43
d42_42
b43
d43_18
b44
d44_19
b45
d45_46
b46
d46_47
b47
d47_48
b48
d48_49
d48_48
b49
d49_50
d49_47
b50
d50_51
d50_46
b51
d51_20
b0.0
b1.0
b2.0
b2.1
b3.0
b4.0
b5.0
b5.1
b6.0
b7.0
b8.0
b8.1
b9.0
b10.0
b11.0
b11.1
b12.0
b13.0
b14.0
b15.0
b16.0
b17.0
b18.0
b19.0
b20.0
b21.0
b22.0
b22.1
b23.0
b24.0
b25.0
b25.1
b26.0
b27.0
b28.0
b28.1
b29.0
b29.1
b30.0
b30.1
b31.0
b32.0
b33.0
b34.0
b34.1
b34.2
b35.0
b35.1
b36.0
b37.0
b38.0
b39.0
b39.1
b40.0
b41.0
b42.0
b42.1
b43.0
b44.0
b45.0
b46.0
b47.0
b48.0
b48.1
b49.0
b50.0
b51.0
b0.0
b1.0
b2.0
b2.1
b3.0
b4.0
b5.0
b5.1
b6.0
b7.0
b8.0
b8.1
b9.0
b10.0
b11.0
b11.1
b12.0
b13.0
b14.0
b15.0
b16.0
b17.0
b18.0
b19.0
b20.0
b21.0
b22.0
b22.1
b23.0
b24.0
b25.0
b25.1
b26.0
b27.0
b28.0
b28.1
b29.0
b29.1
b30.0
b30.1
b31.0
b32.0
b33.0
b34.0
b34.1
b34.2
b35.0
b35.1
b36.0
b37.0
b38.0
b39.0
b39.1
b40.0
b41.0
b42.0
b42.1
b43.0
b44.0
b45.0
b46.0
b47.0
b48.0
b48.1
b49.0
b50.0
b51.0

End
\ total_cons: 410 	total_vars: 257
